# 
# This is the geometry file that corresponds to the current relaxation step.
# If you do not want this file to be written, set the "write_restart_geometry" flag to .false.
#  aims_uuid : F701CB73-7FC7-4EAA-A262-2143AE80A582                                
# 
lattice_vector      8.39088714      0.00000000      0.00000000
lattice_vector      0.00000000      9.80239530      0.00000000
lattice_vector      0.00000000      0.00000000      4.94024681
atom_frac       0.00000000      0.00000000      0.02391019 Ba
atom_frac       0.50000000      0.50000000      0.97608981 Ba
atom_frac       0.00000000      0.50000000      0.99042260 Ba
atom_frac       0.50000000      0.00000000      0.00957740 Ba
atom_frac       0.74973669      0.74883908      0.00579146 S
atom_frac       0.25026331      0.25116092      0.00579146 S
atom_frac       0.75026331      0.24883908      0.99420854 S
atom_frac       0.24973669      0.75116092      0.99420854 S
atom_frac       0.75559983      0.50219418      0.47211906 S
atom_frac       0.24440017      0.49780582      0.47211906 S
atom_frac       0.74440017      0.00219418      0.52788094 S
atom_frac       0.25559983      0.99780582      0.52788094 S
atom_frac       0.81114008      0.70961088      0.41095889 S
atom_frac       0.18885992      0.29038912      0.41095889 S
atom_frac       0.68885992      0.20961088      0.58904111 S
atom_frac       0.31114008      0.79038912      0.58904111 S
# 
# What follows is the current estimated Hessian matrix constructed by the BFGS algorithm.
# This is NOT the true Hessian matrix of the system.
# If you do not want this information here, switch it off using the "hessian_to_restart_geometry" keyword.
# 
trust_radius             0.4000000060
hessian_block                1       1           1.954998          -0.258904           0.277814          -0.258904           2.458048          -0.088004           0.277814          -0.088004          15.974859
hessian_block                1       2           0.524941          -0.239213          -0.797673          -0.046033           0.383977           9.894360          -0.239383           0.819855           2.372421
hessian_block                1       3           0.033338           0.053195           1.258367           0.918243          -1.505259           1.279554          -0.040215          -0.181374          -6.369157
hessian_block                1       4          -0.326308          -0.063520           2.678839          -0.327033           0.090059         -10.745885           0.000000           0.000000           0.000000
hessian_block                2       2          35.448380          -7.099471           4.541030          -7.099471          24.511545           1.146517           4.541030           1.146517          18.887446
hessian_block                2       3          -0.156543          -1.884114          18.070689           4.920971          -0.033446          -1.570437          -1.019594          -9.759333          -5.982406
hessian_block                2       4         -12.450089          10.715422         -20.711255           4.296566         -21.321623          -0.246635           0.000000           0.000000           0.000000
hessian_block                3       3          96.713612          -5.370769         -16.077377          -5.370769           8.958118          -0.515855         -16.077377          -0.515855          19.200312
hessian_block                3       4         -84.435957           3.802046          15.421453           7.462193          -2.483049           9.763694           0.000000           0.000000           0.000000
hessian_block                4       4         101.804904         -15.219701           0.000000         -15.219701          26.786764           0.000000           0.000000           0.000000           0.000000
hessian_block_lv             1       1           3.319549           1.145740          -0.342926           1.145740           7.036178          -5.298415          -0.342926          -5.298415          30.146657
hessian_block_lv_atom        1       1           0.431983          -0.076813          -0.027160          -0.518919          -0.224969          -0.778401          -1.371891          -0.892427          -2.901002
hessian_block_lv_atom        1       2          -0.878756           2.410237           2.818792          -1.282108          -2.873264          -6.290025          -0.613644          -1.334022          -4.120173
hessian_block_lv_atom        1       3          -0.815559          -6.306071         -12.927595          -0.134968           1.187120           2.136463          -0.551938           2.743758           5.979375
hessian_block_lv_atom        1       4          -1.578540           5.689622          11.658422           1.601847           2.034139           5.014835           0.000000           0.000000           0.000000
