lattice_vector  6.98360000000000  0.00000000000000  0.00000000000000
lattice_vector  0.00000000000000  6.98360000000000  0.00000000000000
lattice_vector  0.00000000000000  0.00000000000000  4.24180002069200
atom_frac  0.00000000000000  0.00000000000000  0.00000000000000 Ba
atom_frac  0.50000000000000  0.50000000000000  0.00000000000000 Ba
atom_frac  0.00000000000000  0.50000000000000  0.20933800000000 S
atom_frac  0.50000000000000  0.00000000000000  0.79066200000000 S
atom_frac  0.17857800000000  0.67857800000000  0.47365900000000 S
atom_frac  0.82142200000000  0.32142200000000  0.47365900000000 S
atom_frac  0.67857800000000  0.82142200000000  0.52634100000000 S
atom_frac  0.32142200000000  0.17857800000000  0.52634100000000 S
# format: symmetry_n_params [n n_lv n_fracpos]
symmetry_n_params 5 2 3
symmetry_params a c z2 x3 z3
symmetry_lv a , 0 , 0
symmetry_lv 0 , a , 0
symmetry_lv 0 , 0 , c
symmetry_frac 0 , 0 , 0
symmetry_frac 0.5 , 0.5 , 0
symmetry_frac 0 , 0.5 , z2          
symmetry_frac 0.5 , 0 , 1-z2        
symmetry_frac x3 , x3+0.5 , z3      
symmetry_frac 1-x3 , 0.5-x3 , z3    
symmetry_frac x3+0.5 , 1-x3 , 1-z3  
symmetry_frac 0.5-x3 , x3 , 1-z3    
