lattice_vector 0.0000000000000000 5.1849999999999996 5.1849999999999996 
lattice_vector 5.1849999999999996 0.0000000000000000 5.1849999999999996 
lattice_vector 5.1849999999999996 5.1849999999999996 0.0000000000000000 
atom_frac 0.7580000000000000 0.7580000000000000 0.7580000000000000 S
atom_frac 0.7580000000000001 0.7580000000000001 0.2259999999999996 S
atom_frac 0.7579999999999998 0.2260000000000000 0.7580000000000002 S
atom_frac 0.2260000000000000 0.7579999999999998 0.7580000000000002 S
atom_frac 0.2419999999999996 0.2419999999999996 0.7740000000000006 S
atom_frac 0.2420000000000000 0.2420000000000000 0.2420000000000000 S
atom_frac 0.2420000000000002 0.7740000000000000 0.2419999999999998 S
atom_frac 0.7740000000000000 0.2420000000000003 0.2419999999999996 S
atom_frac 0.1250000000000000 0.1250000000000000 0.1250000000000000 Zr
atom_frac 0.8750000000000000 0.8750000000000000 0.8749999999999998 Zr
atom_frac 0.5000000000000000 0.5000000000000000 0.4999999999999999 Zr
atom_frac 0.4999999999999999 0.4999999999999999 1.0000000000000000 Zr
atom_frac 0.4999999999999999 0.0000000000000001 0.4999999999999999 Zr
atom_frac 0.0000000000000001 0.4999999999999999 0.4999999999999999 Zr
#=======================================================
# Parametric constraints
#=======================================================
symmetry_n_params 2 1 1
symmetry_params a x3
symmetry_lv 0, 0.5*a, 0.5*a
symmetry_lv 0.5*a, 0, 0.5*a
symmetry_lv 0.5*a, 0.5*a, 0
symmetry_frac x3, x3, x3
symmetry_frac x3, x3, 2.5 - 3*x3
symmetry_frac x3, 2.5 - 3*x3, x3
symmetry_frac 2.5 - 3*x3, x3, x3
symmetry_frac 1 - x3, 1 - x3, -1.5 + 3*x3
symmetry_frac 1 - x3, 1 - x3, 1 - x3
symmetry_frac 1 - x3, -1.5 + 3*x3, 1 - x3
symmetry_frac -1.5 + 3*x3, 1 - x3, 1 - x3
symmetry_frac 0.125, 0.125, 0.125
symmetry_frac 0.875, 0.875, 0.875
symmetry_frac 0.5, 0.5, 0.5
symmetry_frac 0.5, 0.5, 1
symmetry_frac 0.5, 0, 0.5
symmetry_frac 0, 0.5, 0.5
