# 
# This is the geometry file that corresponds to the current relaxation step.
# If you do not want this file to be written, set the "write_restart_geometry" flag to .false.
#  aims_uuid : 118932C7-CCD8-41F5-AFF0-61414EF79CDA                                
# 
lattice_vector      7.04742600      0.00000000      0.00000000
lattice_vector      0.00000000      7.04742600      0.00000000
lattice_vector      0.00000000      0.00000000     25.02215322
atom_frac       0.24498959      0.24498959      0.00000000 Ba
atom_frac       0.75501041      0.75501041      0.00000000 Ba
atom_frac       0.25501041      0.74498959      0.50000000 Ba
atom_frac       0.74498959      0.25501041      0.50000000 Ba
atom_frac       0.26488344      0.26488344      0.81925473 Ba
atom_frac       0.73511656      0.73511656      0.81925473 Ba
atom_frac       0.23511656      0.76488344      0.31925473 Ba
atom_frac       0.76488344      0.23511656      0.31925473 Ba
atom_frac       0.23511656      0.76488344      0.68074527 Ba
atom_frac       0.76488344      0.23511656      0.68074527 Ba
atom_frac       0.26488344      0.26488344      0.18074527 Ba
atom_frac       0.73511656      0.73511656      0.18074527 Ba
atom_frac       0.00000000      0.00000000      0.41887514 S
atom_frac       0.50000000      0.50000000      0.91887514 S
atom_frac       0.50000000      0.50000000      0.08112486 S
atom_frac       0.00000000      0.00000000      0.58112486 S
atom_frac       0.00000000      0.00000000      0.88717457 S
atom_frac       0.50000000      0.50000000      0.38717457 S
atom_frac       0.50000000      0.50000000      0.61282543 S
atom_frac       0.00000000      0.00000000      0.11282543 S
atom_frac       0.20389767      0.79610233      0.00000000 S
atom_frac       0.79610233      0.20389767      0.00000000 S
atom_frac       0.70389767      0.70389767      0.50000000 S
atom_frac       0.29610233      0.29610233      0.50000000 S
atom_frac       0.00000000      0.50000000      0.59545687 S
atom_frac       0.00000000      0.50000000      0.09545687 S
atom_frac       0.50000000      0.00000000      0.90454313 S
atom_frac       0.50000000      0.00000000      0.40454313 S
atom_frac       0.00000000      0.50000000      0.40454313 S
atom_frac       0.00000000      0.50000000      0.90454313 S
atom_frac       0.50000000      0.00000000      0.09545687 S
atom_frac       0.50000000      0.00000000      0.59545687 S
atom_frac       0.21263197      0.21263197      0.30125032 S
atom_frac       0.78736803      0.78736803      0.30125032 S
atom_frac       0.28736803      0.71263197      0.80125032 S
atom_frac       0.71263197      0.28736803      0.80125032 S
atom_frac       0.28736803      0.71263197      0.19874968 S
atom_frac       0.71263197      0.28736803      0.19874968 S
atom_frac       0.21263197      0.21263197      0.69874968 S
atom_frac       0.78736803      0.78736803      0.69874968 S
atom_frac       0.25072070      0.25072070      0.39997406 Zr
atom_frac       0.74927930      0.74927930      0.39997406 Zr
atom_frac       0.24927930      0.75072070      0.89997406 Zr
atom_frac       0.75072070      0.24927930      0.89997406 Zr
atom_frac       0.24927930      0.75072070      0.10002594 Zr
atom_frac       0.75072070      0.24927930      0.10002594 Zr
atom_frac       0.25072070      0.25072070      0.60002594 Zr
atom_frac       0.74927930      0.74927930      0.60002594 Zr
# 
# What follows is the current estimated Hessian matrix constructed by the BFGS algorithm.
# This is NOT the true Hessian matrix of the system.
# If you do not want this information here, switch it off using the "hessian_to_restart_geometry" keyword.
# 
trust_radius             0.0681312773
hessian_block                1       1          61.934538           2.587557           0.877240           2.587557          63.196641          -0.390434           0.877240          -0.390434           8.611066
hessian_block                1       2           3.462590          -6.629293          -0.647417         -15.174700         -14.691121           1.174139          -4.575675           9.986520           1.233042
hessian_block                1       3          -6.163728         -26.473927           5.614104           4.650863          -8.729323           1.004542          -9.281216           6.361137          -3.116742
hessian_block                1       4          11.857057           8.462499          -9.015863         -41.130748         -36.387249           1.552302           0.000000           0.000000           0.000000
hessian_block                2       2           8.618766           1.613955          -3.645531           1.613955         122.384385           0.387314          -3.645531           0.387314          21.893868
hessian_block                2       3           1.016739          46.475625          -5.336162           0.526998           0.627057          -2.637756           2.264499           5.729002           5.703257
hessian_block                2       4           6.938231          -2.033229         -13.023601           8.765811          82.665375           0.013166           0.000000           0.000000           0.000000
hessian_block                3       3         223.597815           1.896277         -13.547751           1.896277          16.317642          12.688392         -13.547751          12.688392         474.942726
hessian_block                3       4          -6.576669          -4.889002           8.491273          76.147040          -9.476753        -274.165909           0.000000           0.000000           0.000000
hessian_block                4       4         105.683431          -9.165733           0.000000          -9.165733         600.043822           0.000000           0.000000           0.000000           0.000000
hessian_block_lv             1       1          51.244417           2.610116           0.000000           2.610116           1.640694           0.000000           0.000000           0.000000           0.000000
hessian_block_lv_atom        1       1           3.446296           1.032043           0.000000           0.847010          -0.534636           0.000000           0.418762           0.127579           0.000000
hessian_block_lv_atom        1       2           1.459966          -0.564847           0.000000          -6.211674          -1.135643           0.000000          -5.022348           0.803355           0.000000
hessian_block_lv_atom        1       3         -14.680694           2.068358           0.000000           4.735512          -0.823726           0.000000          -8.196476         -10.286885           0.000000
hessian_block_lv_atom        1       4          -2.550243          -1.011110           0.000000          -2.396708           2.525713           0.000000           0.000000           0.000000           0.000000
