# 
# This is the geometry file that corresponds to the current relaxation step.
# If you do not want this file to be written, set the "write_restart_geometry" flag to .false.
#  aims_uuid : C7449623-5AA1-41E9-A05E-182D899CB15A                                
# 
lattice_vector     -2.46079635      2.46079635      7.78158811
lattice_vector      2.46079635     -2.46079635      7.78158811
lattice_vector      2.46079635      2.46079635     -7.78158811
atom_frac       0.35887321      0.35887321     -0.00000000 Ba
atom_frac      -0.35887321     -0.35887321      0.00000000 Ba
atom_frac       0.50000000     -0.00000000      0.50000000 S
atom_frac       0.00000000      0.50000000      0.50000000 S
atom_frac       0.16429335      0.16429335     -0.00000000 S
atom_frac      -0.16429335     -0.16429335      0.00000000 S
atom_frac       0.00000000      0.00000000      0.00000000 Zr
# 
# What follows is the current estimated Hessian matrix constructed by the BFGS algorithm.
# This is NOT the true Hessian matrix of the system.
# If you do not want this information here, switch it off using the "hessian_to_restart_geometry" keyword.
# 
trust_radius             0.0109712612
hessian_block                1       1         101.591274          -0.433648           0.000000          -0.433648         177.899988           0.000000           0.000000           0.000000           0.000000
hessian_block_lv             1       1          26.255150           0.776772           0.000000           0.776772           0.732078           0.000000           0.000000           0.000000           0.000000
hessian_block_lv_atom        1       1          -9.774695           1.729991           0.000000           5.815609           4.619695           0.000000           0.000000           0.000000           0.000000
