# 
# This is the geometry file that corresponds to the current relaxation step.
# If you do not want this file to be written, set the "write_restart_geometry" flag to .false.
#  aims_uuid : 9831C35A-1B79-4B57-A11F-E48B4399CFAF                                
# 
lattice_vector     -2.21433625      2.21433625     19.07502928
lattice_vector      2.21433625     -2.21433625     19.07502928
lattice_vector      2.21433625      2.21433625    -19.07502928
atom_frac       0.50000000      0.50000000      0.00000000 Ba
atom_frac       0.29026407      0.29026407      0.00000000 Ba
atom_frac      -0.29026407     -0.29026407     -0.00000000 Ba
atom_frac       0.00000000      0.00000000      0.00000000 S
atom_frac       0.21080869      0.21080869      0.00000000 S
atom_frac      -0.21080869     -0.21080869     -0.00000000 S
atom_frac       0.92678753      0.42678753      0.50000000 S
atom_frac       0.42678753      0.92678753      0.50000000 S
atom_frac       0.07321247     -0.42678753      0.50000000 S
atom_frac      -0.42678753      0.07321247      0.50000000 S
atom_frac       0.40162467      0.40162467      0.00000000 Zr
atom_frac      -0.40162467     -0.40162467     -0.00000000 Zr
# 
# What follows is the current estimated Hessian matrix constructed by the BFGS algorithm.
# This is NOT the true Hessian matrix of the system.
# If you do not want this information here, switch it off using the "hessian_to_restart_geometry" keyword.
# 
trust_radius             4.5892274880
hessian_block                1       1         171.551883         -71.075137         -57.933491         -71.075137         308.712723         -36.187299         -57.933491         -36.187299         667.140716
hessian_block                1       2          42.440718          14.691230        -557.927587           0.000000           0.000000           0.000000           0.000000           0.000000           0.000000
hessian_block                2       2         566.517825           0.000000           0.000000           0.000000           0.000000           0.000000           0.000000           0.000000           0.000000
hessian_block_lv             1       1          43.534764           0.628092           0.000000           0.628092           0.071033           0.000000           0.000000           0.000000           0.000000
hessian_block_lv_atom        1       1           3.350633          -1.333033           0.000000          18.225395           2.324820           0.000000         -95.793645          -3.767930           0.000000
hessian_block_lv_atom        1       2          87.121738           2.736214           0.000000           0.000000           0.000000           0.000000           0.000000           0.000000           0.000000
