# 
# This is the geometry file that corresponds to the current relaxation step.
# If you do not want this file to be written, set the "write_restart_geometry" flag to .false.
#  aims_uuid : 54DF285F-13F2-4481-AA25-B7B24E3E88C6                                
# 
lattice_vector      3.57009621      0.00000000      0.00000000
lattice_vector      0.00000000      3.57009621      0.00000000
lattice_vector      0.00000000      0.00000000      5.42483917
atom_frac       0.00000000      0.50000000     -0.29834542 S
atom_frac       0.50000000      0.00000000      0.29834542 S
atom_frac       0.00000000      0.50000000      0.19021611 Zr
atom_frac       0.50000000      0.00000000     -0.19021611 Zr
# 
# What follows is the current estimated Hessian matrix constructed by the BFGS algorithm.
# This is NOT the true Hessian matrix of the system.
# If you do not want this information here, switch it off using the "hessian_to_restart_geometry" keyword.
# 
trust_radius             0.0444362381
hessian_block                1       1          23.018215          -8.944046           0.000000          -8.944046          53.381046           0.000000           0.000000           0.000000           0.000000
hessian_block_lv             1       1          27.525545           2.501772           0.000000           2.501772           4.027309           0.000000           0.000000           0.000000           0.000000
hessian_block_lv_atom        1       1          -5.257342          -1.170478           0.000000          -1.989524           6.815056           0.000000           0.000000           0.000000           0.000000
