lattice_vector -2.5055000000000001 2.5055000000000001 7.9496999478000001
lattice_vector 2.5055000000000001 -2.5055000000000001 7.9496999478000001
lattice_vector 2.5055000000000001 2.5055000000000001 -7.9496999478000001
atom_frac 0.6420712200000003 0.6420712199999999 0.0000000000000000 Ba
atom_frac 0.3579287799999998 0.3579287799999999 0.0000000000000000 Ba
atom_frac 0.5000000000000000 -0.0000000000000000 0.5000000000000000 S
atom_frac 0.0000000000000000 0.5000000000000000 0.5000000000000000 S
atom_frac 0.8366424300000000 0.8366424300000000 -0.0000000000000000 S
atom_frac 0.1633575700000000 0.1633575700000000 0.0000000000000000 S
atom_frac 0.0000000000000000 -0.0000000000000000 0.0000000000000000 Zr
symmetry_n_params 4 2 2
symmetry_params a c z3 z4
symmetry_lv -0.5*a, 0.5*a, 0.5*c
symmetry_lv 0.5*a, -0.5*a, 0.5*c
symmetry_lv 0.5*a, 0.5*a, -0.5*c
symmetry_frac z3, z3, 0
symmetry_frac 1 - z3, 1 - z3, 0
symmetry_frac 0.5, 0, 0.5
symmetry_frac 0, 0.5, 0.5
symmetry_frac z4, z4, 0
symmetry_frac 1 - z4, 1 - z4, 0
symmetry_frac 0, 0, 0
