# 
# This is the geometry file that corresponds to the current relaxation step.
# If you do not want this file to be written, set the "write_restart_geometry" flag to .false.
#  aims_uuid : E142EDCD-B7DC-4C44-AEA3-09507F95C95D                                
# 
lattice_vector      7.04742179      0.00000000      0.00000000
lattice_vector      0.00000000      7.04742179      0.00000000
lattice_vector      0.00000000      0.00000000     25.02177061
atom_frac       0.24504229      0.24504229      0.00000000 Ba
atom_frac       0.75495771      0.75495771      0.00000000 Ba
atom_frac       0.25495771      0.74504229      0.50000000 Ba
atom_frac       0.74504229      0.25495771      0.50000000 Ba
atom_frac       0.26494581      0.26494581      0.81925161 Ba
atom_frac       0.73505419      0.73505419      0.81925161 Ba
atom_frac       0.23505419      0.76494581      0.31925161 Ba
atom_frac       0.76494581      0.23505419      0.31925161 Ba
atom_frac       0.23505419      0.76494581      0.68074839 Ba
atom_frac       0.76494581      0.23505419      0.68074839 Ba
atom_frac       0.26494581      0.26494581      0.18074839 Ba
atom_frac       0.73505419      0.73505419      0.18074839 Ba
atom_frac       0.00000000      0.00000000      0.41888303 S
atom_frac       0.50000000      0.50000000      0.91888303 S
atom_frac       0.50000000      0.50000000      0.08111697 S
atom_frac       0.00000000      0.00000000      0.58111697 S
atom_frac       0.00000000      0.00000000      0.88717023 S
atom_frac       0.50000000      0.50000000      0.38717023 S
atom_frac       0.50000000      0.50000000      0.61282977 S
atom_frac       0.00000000      0.00000000      0.11282977 S
atom_frac       0.20394080      0.79605920      0.00000000 S
atom_frac       0.79605920      0.20394080      0.00000000 S
atom_frac       0.70394080      0.70394080      0.50000000 S
atom_frac       0.29605920      0.29605920      0.50000000 S
atom_frac       0.00000000      0.50000000      0.59544943 S
atom_frac       0.00000000      0.50000000      0.09544943 S
atom_frac       0.50000000      0.00000000      0.90455057 S
atom_frac       0.50000000      0.00000000      0.40455057 S
atom_frac       0.00000000      0.50000000      0.40455057 S
atom_frac       0.00000000      0.50000000      0.90455057 S
atom_frac       0.50000000      0.00000000      0.09544943 S
atom_frac       0.50000000      0.00000000      0.59544943 S
atom_frac       0.21263300      0.21263300      0.30124931 S
atom_frac       0.78736700      0.78736700      0.30124931 S
atom_frac       0.28736700      0.71263300      0.80124931 S
atom_frac       0.71263300      0.28736700      0.80124931 S
atom_frac       0.28736700      0.71263300      0.19875069 S
atom_frac       0.71263300      0.28736700      0.19875069 S
atom_frac       0.21263300      0.21263300      0.69875069 S
atom_frac       0.78736700      0.78736700      0.69875069 S
atom_frac       0.25072084      0.25072084      0.39997470 Zr
atom_frac       0.74927916      0.74927916      0.39997470 Zr
atom_frac       0.24927916      0.75072084      0.89997470 Zr
atom_frac       0.75072084      0.24927916      0.89997470 Zr
atom_frac       0.24927916      0.75072084      0.10002530 Zr
atom_frac       0.75072084      0.24927916      0.10002530 Zr
atom_frac       0.25072084      0.25072084      0.60002530 Zr
atom_frac       0.74927916      0.74927916      0.60002530 Zr
# 
# What follows is the current estimated Hessian matrix constructed by the BFGS algorithm.
# This is NOT the true Hessian matrix of the system.
# If you do not want this information here, switch it off using the "hessian_to_restart_geometry" keyword.
# 
trust_radius             0.0681233888
hessian_block                1       1          67.158718          -1.695603           2.536002          -1.695603          69.240459          -1.069240           2.536002          -1.069240           9.074591
hessian_block                1       2           3.915622          -5.812307           0.042084         -15.452718         -14.944377           1.023469          -4.586561           9.712069           1.575977
hessian_block                1       3          -7.919894         -24.607080           4.434373           5.232218          -6.631165           1.943770           3.234969           2.337558           5.093716
hessian_block                1       4           9.384117           9.561537          -9.883743         -47.291658         -39.675912          -3.043283           0.000000           0.000000           0.000000
hessian_block                2       2           9.040936           0.558148          -2.562223           0.558148         122.832531           1.627311          -2.562223           1.627311          20.998724
hessian_block                2       3          -0.152807          44.288079          -5.789546           0.912370          -1.072551          -0.184277           1.536979           2.957839          11.775265
hessian_block                2       4           5.316711          -2.284455         -14.821685           8.124759          88.223020          -1.509295           0.000000           0.000000           0.000000
hessian_block                3       3         227.384934          -1.215005         -27.061418          -1.215005          16.250771          12.131301         -27.061418          12.131301         478.925577
hessian_block                3       4          -1.699361          -7.075267          -8.330820          76.653107         -10.175658        -271.731021           0.000000           0.000000           0.000000
hessian_block                4       4         108.943628          -4.301282           0.000000          -4.301282         615.614290           0.000000           0.000000           0.000000           0.000000
hessian_block_lv             1       1          51.580235           2.902834           0.000000           2.902834           1.780681           0.000000           0.000000           0.000000           0.000000
hessian_block_lv_atom        1       1           3.488069           0.698146           0.000000          -0.209650          -1.392410           0.000000           0.218223          -0.274424           0.000000
hessian_block_lv_atom        1       2           0.930198          -0.911456           0.000000          -5.767527          -0.710774           0.000000          -5.324687          -0.093184           0.000000
hessian_block_lv_atom        1       3         -14.525852           3.454150           0.000000           3.994551          -1.219029           0.000000          -9.321708         -11.491854           0.000000
hessian_block_lv_atom        1       4          -2.077337           0.181349           0.000000          -0.244287           3.369459           0.000000           0.000000           0.000000           0.000000
