lattice_vector  7.03700000000000  0.00000000000000  0.00000000000000
lattice_vector  0.00000000000000  9.98299993910000  0.00000000000000
lattice_vector  0.00000000000000  0.00000000000000  7.05000015380000
atom_frac  0.92300000000000  0.25000000000000  0.52300000000000 Ba
atom_frac  0.57700000000000  0.75000000000000  0.02300000000000 Ba
atom_frac  0.07700000000000  0.75000000000000  0.47700000000000 Ba
atom_frac  0.42300000000000  0.25000000000000  0.97700000000000 Ba
atom_frac  0.01800000000000  0.25000000000000  0.09900000000000 S
atom_frac  0.48200000000000  0.75000000000000  0.59900000000000 S
atom_frac  0.98200000000000  0.75000000000000  0.90100000000000 S
atom_frac  0.51800000000000  0.25000000000000  0.40100000000000 S
atom_frac  0.19600000000000  0.04800000000000  0.69100000000000 S
atom_frac  0.30400000000000  0.95200000000000  0.19100000000000 S
atom_frac  0.80400000000000  0.54800000000000  0.30900000000000 S
atom_frac  0.69600000000000  0.45200000000000  0.80900000000000 S
atom_frac  0.80400000000000  0.95200000000000  0.30900000000000 S
atom_frac  0.69600000000000  0.04800000000000  0.80900000000000 S
atom_frac  0.19600000000000  0.45200000000000  0.69100000000000 S
atom_frac  0.30400000000000  0.54800000000000  0.19100000000000 S
atom_frac  0.00000000000000  0.00000000000000  0.00000000000000 Zr
atom_frac  0.50000000000000  0.00000000000000  0.50000000000000 Zr
atom_frac  0.00000000000000  0.50000000000000  0.00000000000000 Zr
atom_frac  0.50000000000000  0.50000000000000  0.50000000000000 Zr
# format: symmetry_n_params [n n_lv n_fracpos]
symmetry_n_params 10 3 7
symmetry_params a b c x2 z2 x3 z3 x4 y4 z4
symmetry_lv a , 0 , 0
symmetry_lv 0 , b , 0
symmetry_lv 0 , 0 , c
symmetry_frac x2 , 0.25 , z2              
symmetry_frac 1.5-x2 , 0.75 , z2-0.5      
symmetry_frac 1-x2 , 0.75 , 1-z2          
symmetry_frac x2-0.5 , 0.25 , 1.5-z2      
symmetry_frac x3 , 0.25 , z3              
symmetry_frac 0.5-x3 , 0.75 , z3-0.5      
symmetry_frac 1-x3 , 0.75 , 1-z3          
symmetry_frac 0.5+x3 , 0.25 , 0.5-z3      
symmetry_frac x4 , y4 , z4                
symmetry_frac 0.5-x4 , 1-y4 , z4-0.5      
symmetry_frac 1-x4 , y4+0.5 , 1-z4        
symmetry_frac 0.5+x4 , 0.5-y4 , 1.5-z4    
symmetry_frac 1-x4 , 1-y4 , 1-z4          
symmetry_frac 0.5+x4 , y4 , 1.5-z4        
symmetry_frac x4 , 0.5-y4 , z4            
symmetry_frac 0.5-x4 , y4+0.5 , z4-0.5    
symmetry_frac 0 , 0 , 0                   
symmetry_frac 0.5 , 0 , 0.5               
symmetry_frac 0 , 0.5 , 0                 
symmetry_frac 0.5 , 0.5 , 0.5             
