lattice_vector -2.5241500000000001 2.5241500000000001 17.9586999987249989
lattice_vector 2.5241500000000001 -2.5241500000000001 17.9586999987249989
lattice_vector 2.5241500000000001 2.5241500000000001 -17.9586999987249989
atom_frac 0.4325198699999999 0.4325198700000001 -0.0000000000000000 Ba
atom_frac 0.5674801300000000 0.5674801300000001 0.0000000000000000 Ba
atom_frac 0.3002676799999998 0.3002676800000000 0.0000000000000000 Ba
atom_frac 0.6997323200000000 0.6997323200000002 -0.0000000000000000 Ba
atom_frac 0.4999999999999999 -0.0000000000000001 0.4999999999999998 S
atom_frac 0.9999999999999997 0.4999999999999999 0.4999999999999997 S
atom_frac 0.9294566699999999 0.9294566700000003 -0.0000000000000000 S
atom_frac 0.0705433300000001 0.0705433299999998 -0.0000000000000000 S
atom_frac 0.7868713999999998 0.7868714000000002 0.0000000000000000 S
atom_frac 0.2131286000000001 0.2131285999999999 0.0000000000000000 S
atom_frac 0.8605254999999998 0.3605255000000002 0.4999999999999997 S
atom_frac 0.3605255000000001 0.8605255000000001 0.4999999999999998 S
atom_frac 0.1394744999999998 0.6394744999999997 0.4999999999999997 S
atom_frac 0.6394745000000001 0.1394744999999998 0.4999999999999998 S
atom_frac 0.0000000000000000 -0.0000000000000000 0.0000000000000000 Zr
atom_frac 0.8567975099999997 0.8567975100000004 -0.0000000000000001 Zr
atom_frac 0.1432024900000000 0.1432024899999999 0.0000000000000000 Zr
#=======================================================
# Parametric constraints
#=======================================================
symmetry_n_params 8 2 6
symmetry_params a c z3 z4 z5 z6 z7 z8
symmetry_lv -0.5*a, 0.5*a, 0.5*c
symmetry_lv 0.5*a, -0.5*a, 0.5*c
symmetry_lv 0.5*a, 0.5*a, -0.5*c
symmetry_frac z3, z3, 0
symmetry_frac 1 - z3, 1 - z3, 0
symmetry_frac z4, z4, 0
symmetry_frac 1 - z4, 1 - z4, 0
symmetry_frac 0.5, 0, 0.5
symmetry_frac 1, 0.5, 0.5
symmetry_frac z5, z5, 0
symmetry_frac 1 - z5, 1 - z5, 0
symmetry_frac z6, z6, 0
symmetry_frac 1 - z6, 1 - z6, 0
symmetry_frac 0.5 + z8, z8, 0.5
symmetry_frac z8, 0.5 + z8, 0.5
symmetry_frac 0.5 - z8, 1 - z8, 0.5
symmetry_frac 1 - z8, 0.5 - z8, 0.5
symmetry_frac 0, 0, 0
symmetry_frac z7, z7, 0
symmetry_frac 1 - z7, 1 - z7, 0
