# 
# This is the geometry file that corresponds to the current relaxation step.
# If you do not want this file to be written, set the "write_restart_geometry" flag to .false.
#  aims_uuid : 5C8E07F1-5A0A-4675-A8D4-36C9215E32CF                                
# 
lattice_vector      0.00000000      2.58284981      2.58284981
lattice_vector      2.58284981      0.00000000      2.58284981
lattice_vector      2.58284981      2.58284981      0.00000000
atom_frac       0.50000000      0.50000000      0.50000000 S
atom_frac       0.00000000      0.00000000      0.00000000 Zr
# 
# What follows is the current estimated Hessian matrix constructed by the BFGS algorithm.
# This is NOT the true Hessian matrix of the system.
# If you do not want this information here, switch it off using the "hessian_to_restart_geometry" keyword.
# 
trust_radius             0.2000000030
hessian_block_lv             1       1          10.353009           0.000000           0.000000           0.000000           0.000000           0.000000           0.000000           0.000000           0.000000
