  lattice_vector         7.04742179        0.00000000        0.00000000
  lattice_vector         0.00000000        7.04742179        0.00000000
  lattice_vector         0.00000000        0.00000000       25.02177061

            atom         1.72691640        1.72691640        0.00000000  Ba
            atom        -1.72691640       -1.72691640        0.00000000  Ba
            atom         1.79679450       -1.79679450       12.51088530  Ba
            atom        -1.79679450        1.79679450       12.51088530  Ba
            atom         1.86718491        1.86718491       -4.52264483  Ba
            atom        -1.86718491       -1.86718491       -4.52264483  Ba
            atom         1.65652599       -1.65652599        7.98824048  Ba
            atom        -1.65652599        1.65652599        7.98824048  Ba
            atom         1.65652599       -1.65652599       -7.98824048  Ba
            atom        -1.65652599        1.65652599       -7.98824048  Ba
            atom         1.86718491        1.86718491        4.52264483  Ba
            atom        -1.86718491       -1.86718491        4.52264483  Ba
            atom         0.00000000        0.00000000       10.48119508  S
            atom         3.52371089        3.52371089       -2.02969022  S
            atom         3.52371089        3.52371089        2.02969022  S
            atom         0.00000000        0.00000000      -10.48119508  S
            atom         0.00000000        0.00000000       -2.82320063  S
            atom         3.52371089        3.52371089        9.68768467  S
            atom         3.52371089        3.52371089       -9.68768467  S
            atom         0.00000000        0.00000000        2.82320063  S
            atom         1.43725684       -1.43725684        0.00000000  S
            atom        -1.43725684        1.43725684        0.00000000  S
            atom        -2.08645405       -2.08645405       12.51088530  S
            atom         2.08645405        2.08645405       12.51088530  S
            atom         0.00000000        3.52371089      -10.12257169  S
            atom         0.00000000        3.52371089        2.38831362  S
            atom         3.52371089        0.00000000       -2.38831362  S
            atom         3.52371089        0.00000000       10.12257169  S
            atom         0.00000000        3.52371089       10.12257169  S
            atom         0.00000000        3.52371089       -2.38831362  S
            atom         3.52371089        0.00000000        2.38831362  S
            atom         3.52371089        0.00000000      -10.12257169  S
            atom         1.49851447        1.49851447        7.53779113  S
            atom        -1.49851447       -1.49851447        7.53779113  S
            atom         2.02519643       -2.02519643       -4.97309417  S
            atom        -2.02519643        2.02519643       -4.97309417  S
            atom         2.02519643       -2.02519643        4.97309417  S
            atom        -2.02519643        2.02519643        4.97309417  S
            atom         1.49851447        1.49851447       -7.53779113  S
            atom        -1.49851447       -1.49851447       -7.53779113  S
            atom         1.76693553        1.76693553       10.00807522  Zr
            atom        -1.76693553       -1.76693553       10.00807522  Zr
            atom         1.75677536       -1.75677536       -2.50281008  Zr
            atom        -1.75677536        1.75677536       -2.50281008  Zr
            atom         1.75677536       -1.75677536        2.50281008  Zr
            atom        -1.75677536        1.75677536        2.50281008  Zr
            atom         1.76693553        1.76693553      -10.00807522  Zr
            atom        -1.76693553       -1.76693553      -10.00807522  Zr
