lattice_vector  4.67590000000000 -2.41599998252300  0.00000000000000
lattice_vector  4.67590000000000  2.41599998252300  0.00000000000000
lattice_vector  4.32981015053200  0.00000000000000  8.06458152228732
atom_frac  0.14310900000000  0.85689100000000  0.25000000000000 Ba
atom_frac  0.85689100000000  0.14310900000000  0.75000000000000 Ba
atom_frac  0.48524300000000  0.19305700000000  0.52051600000000 S
atom_frac  0.80694300000000  0.51475700000000  0.97948360000000 S
atom_frac  0.51475700000000  0.80694300000000  0.47948400000000 S
atom_frac  0.19305700000000  0.48524300000000  0.02051640000000 S
symmetry_n_params 8 4 4
symmetry_params a b d e y1 x2 y2 z2
symmetry_lv 0.5*a , -0.5*b , 0
symmetry_lv 0.5*a , 0.5*b , 0
symmetry_lv d , 0 , e
symmetry_frac -y1 , y1 , 0.25
symmetry_frac y1 , -y1 , 0.75
symmetry_frac x2-y2 , x2+y2 , z2
symmetry_frac -x2-y2 , -x2+y2 , -z2+0.5
symmetry_frac -x2+y2 , -x2-y2 , -z2
symmetry_frac x2+y2 , x2-y2 , z2+0.5
