lattice_vector 3.5690499999999998 -12.9191501118400005 0.0000000000000000
lattice_vector 3.5690499999999998 12.9191501118400005 0.0000000000000000
lattice_vector 0.0000000000000000 0.0000000000000000 7.1226999775359996
atom_frac 0.9999999999999999 0.4999999999999999 0.0000000000000000 Ba
atom_frac 0.5000000000000000 0.0000000000000000 0.5000000000000000 Ba
atom_frac 0.1717241470000000 0.3096677730000000 0.0000000000000000 Ba
atom_frac 0.8282758530000001 0.6903322270000001 0.0000000000000000 Ba
atom_frac 0.6903322270000000 0.8282758530000000 0.5000000000000000 Ba
atom_frac 0.3096677730000000 0.1717241470000000 0.5000000000000000 Ba
atom_frac 0.5000000000000000 0.0000000000000000 0.0000000000000000 S
atom_frac 0.9999999999999999 0.4999999999999999 0.5000000000000000 S
atom_frac 0.6520846800000001 0.3479153199999999 0.2500000000000000 S
atom_frac 0.3479153200000000 0.6520846800000000 0.2500000000000000 S
atom_frac 0.3479153200000000 0.6520846800000000 0.7500000000000000 S
atom_frac 0.6520846800000001 0.3479153199999999 0.7500000000000000 S
atom_frac 0.8449315000000001 0.1550685000000000 0.2500000000000000 S
atom_frac 0.1550684999999999 0.8449314999999998 0.2500000000000000 S
atom_frac 0.1550684999999999 0.8449314999999998 0.7500000000000000 S
atom_frac 0.8449315000000001 0.1550685000000000 0.7500000000000000 S
atom_frac 0.2905000599999996 0.1868926599999996 0.0000000000000000 S
atom_frac 0.7094999400000002 0.8131073400000002 0.0000000000000000 S
atom_frac 0.8131073400000002 0.7094999400000002 0.5000000000000000 S
atom_frac 0.1868926599999998 0.2905000599999998 0.5000000000000000 S
atom_frac 0.3997334000000000 0.1004710399999999 0.0000000000000000 Zr
atom_frac 0.6002666000000001 0.8995289600000000 0.0000000000000000 Zr
atom_frac 0.8995289599999999 0.6002666000000000 0.5000000000000000 Zr
atom_frac 0.1004710399999999 0.3997333999999998 0.5000000000000000 Zr
symmetry_n_params 11 3 8
symmetry_params a b c y3 y4 x5 y5 x6 y6 x7 y7
symmetry_lv 0.5*a, -0.5*b, 0
symmetry_lv 0.5*a, 0.5*b, 0
symmetry_lv 0, 0, c
symmetry_frac 1, 0.5, 0
symmetry_frac 0.5, 0, 0.5
symmetry_frac x5 - y5, x5 + y5, 0
symmetry_frac 1 - x5 + y5, 1 - x5 - y5, 0
symmetry_frac 1 - x5 - y5, 1 - x5 + y5, 0.5
symmetry_frac x5 + y5, x5 - y5, 0.5
symmetry_frac 0.5, 0, 0
symmetry_frac 1, 0.5, 0.5
symmetry_frac 1 - y4, y4, 0.25
symmetry_frac y4, 1 - y4, 0.25
symmetry_frac y4, 1 - y4, 0.75
symmetry_frac 1 - y4, y4, 0.75
symmetry_frac 1 - y3, y3, 0.25
symmetry_frac y3, 1 - y3, 0.25
symmetry_frac y3, 1 - y3, 0.75
symmetry_frac 1 - y3, y3, 0.75
symmetry_frac x6 - y6, -1 + x6 + y6, 0
symmetry_frac 1 - x6 + y6, 2 - x6 - y6, 0
symmetry_frac 2 - x6 - y6, 1 - x6 + y6, 0.5
symmetry_frac -1 + x6 + y6, x6 - y6, 0.5
symmetry_frac x7 - y7, -1 + x7 + y7, 0
symmetry_frac 1 - x7 + y7, 2 - x7 - y7, 0
symmetry_frac 2 - x7 - y7, 1 - x7 + y7, 0.5
symmetry_frac -1 + x7 + y7, x7 - y7, 0.5
