lattice_vector 8.2296999999999993 0.0000000000000000 0.0000000000000000
lattice_vector 0.0000000000000000 13.0519997010999997 0.0000000000000000
lattice_vector -4.9891503383323803 0.0000000000000000 7.8093323311995899
atom_frac 0.3514999999999999 0.6543000000000001 0.6762000000000001 S
atom_frac 0.6485000000000001 0.6543000000000001 0.8237999999999999 S
atom_frac 0.6485000000000001 0.3456999999999999 0.3237999999999998 S
atom_frac 0.3514999999999998 0.3456999999999999 0.1762000000000001 S
atom_frac 0.1890000000000000 0.4208000000000000 0.6597999999999999 S
atom_frac 0.8110000000000001 0.4208000000000000 0.8402000000000001 S
atom_frac 0.8110000000000001 0.5791999999999999 0.3402000000000001 S
atom_frac 0.1889999999999999 0.5791999999999999 0.1597999999999997 S
atom_frac 0.2554000000000000 0.5570000000000001 0.7872999999999999 S
atom_frac 0.7446000000000000 0.5570000000000001 0.7127000000000001 S
atom_frac 0.7446000000000000 0.4430000000000000 0.2127000000000001 S
atom_frac 0.2554000000000000 0.4430000000000000 0.2872999999999999 S
atom_frac 0.4163999999999998 0.3232000000000000 0.8003999999999998 S
atom_frac 0.5836000000000000 0.3232000000000000 0.6996000000000000 S
atom_frac 0.5836000000000001 0.6768000000000001 0.1996000000000001 S
atom_frac 0.4164000000000000 0.6768000000000001 0.3004000000000000 S
atom_frac 0.9200999999999999 0.2021000000000000 0.1194000000000000 S
atom_frac 0.0798999999999999 0.2021000000000000 0.3805999999999999 S
atom_frac 0.0799000000000001 0.7979000000000001 0.8806000000000000 S
atom_frac 0.9200999999999997 0.7979000000000001 0.6193999999999997 S
atom_frac 0.7572999999999998 0.9690000000000003 0.9773999999999998 S
atom_frac 0.2427000000000001 0.9690000000000003 0.5226000000000000 S
atom_frac 0.2427000000000002 0.0309999999999998 0.0226000000000001 S
atom_frac 0.7572999999999998 0.0309999999999998 0.4774000000000000 S
atom_frac 0.6925999999999999 0.1062000000000000 0.0427000000000000 S
atom_frac 0.3074000000000001 0.1062000000000000 0.4573000000000000 S
atom_frac 0.3074000000000001 0.8938000000000001 0.9573000000000000 S
atom_frac 0.6925999999999999 0.8938000000000001 0.5427000000000000 S
atom_frac 0.8516999999999999 0.8729000000000002 0.1811000000000000 S
atom_frac 0.1483000000000001 0.8729000000000002 0.3189000000000000 S
atom_frac 0.1483000000000001 0.1270999999999998 0.8189000000000000 S
atom_frac 0.8516999999999999 0.1270999999999998 0.6811000000000000 S
#=======================================================
# Parametric constraints
#=======================================================
symmetry_n_params 28 4 24
symmetry_params ax by cx cz x1 y1 z1 x2 y2 z2 x3 y3 z3 x4 y4 z4 x5 y5 z5 x6 y6 z6 x7 y7 z7 x8 y8 z8
symmetry_lv ax, 0, 0
symmetry_lv 0, by, 0
symmetry_lv cx, 0, cz
symmetry_frac x1, y1, z1
symmetry_frac 1 - x1, y1, 1.5 - z1
symmetry_frac 1 - x1, 1 - y1, 1 - z1
symmetry_frac x1, 1 - y1, -0.5 + z1
symmetry_frac x2, y2, z2
symmetry_frac 1 - x2, y2, 1.5 - z2
symmetry_frac 1 - x2, 1 - y2, 1 - z2
symmetry_frac x2, 1 - y2, -0.5 + z2
symmetry_frac x3, y3, z3
symmetry_frac 1 - x3, y3, 1.5 - z3
symmetry_frac 1 - x3, 1 - y3, 1 - z3
symmetry_frac x3, 1 - y3, -0.5 + z3
symmetry_frac x4, y4, z4
symmetry_frac 1 - x4, y4, 1.5 - z4
symmetry_frac 1 - x4, 1 - y4, 1 - z4
symmetry_frac x4, 1 - y4, -0.5 + z4
symmetry_frac x5, y5, z5
symmetry_frac 1 - x5, y5, 0.5 - z5
symmetry_frac 1 - x5, 1 - y5, 1 - z5
symmetry_frac x5, 1 - y5, 0.5 + z5
symmetry_frac x6, y6, z6
symmetry_frac 1 - x6, y6, 1.5 - z6
symmetry_frac 1 - x6, 1 - y6, 1 - z6
symmetry_frac x6, 1 - y6, -0.5 + z6
symmetry_frac x7, y7, z7
symmetry_frac 1 - x7, y7, 0.5 - z7
symmetry_frac 1 - x7, 1 - y7, 1 - z7
symmetry_frac x7, 1 - y7, 0.5 + z7
symmetry_frac x8, y8, z8
symmetry_frac 1 - x8, y8, 0.5 - z8
symmetry_frac 1 - x8, 1 - y8, 1 - z8
symmetry_frac x8, 1 - y8, 0.5 + z8
