# 
# This is the geometry file that corresponds to the current relaxation step.
# If you do not want this file to be written, set the "write_restart_geometry" flag to .false.
#  aims_uuid : 63B61865-4C4D-4D6B-A291-7803E37F8D9B                                
# 
lattice_vector      1.59214839     -2.75768062      0.00000000
lattice_vector      1.59214839      2.75768062      0.00000000
lattice_vector      0.00000000      0.00000000      5.11109431
atom_frac       0.33333300     -0.33333300      0.25000000 Zr
atom_frac      -0.33333300      0.33333300     -0.25000000 Zr
# 
# What follows is the current estimated Hessian matrix constructed by the BFGS algorithm.
# This is NOT the true Hessian matrix of the system.
# If you do not want this information here, switch it off using the "hessian_to_restart_geometry" keyword.
# 
trust_radius             0.8000000119
hessian_block_lv             1       1          11.377652           2.280144           0.000000           2.280144           1.755831           0.000000           0.000000           0.000000           0.000000
