lattice_vector 8.6066000000000003 0.0000000000000000 0.0000000000000000
lattice_vector 0.0000000000000000 10.1272003174399998 0.0000000000000000
lattice_vector 0.0000000000000000 0.0000000000000000 5.1050999789959999
atom_frac 0.0000000000000000 0.0000000000000000 0.0254711760000000 Ba
atom_frac 0.5000000000000000 0.5000000000000000 0.9745288239999998 Ba
atom_frac 0.0000000000000000 0.5000000000000000 0.9928518100000000 Ba
atom_frac 0.5000000000000000 0.0000000000000000 0.0071481900000000 Ba
atom_frac 0.7498988000000000 0.7491093700000001 0.0162481470000000 S
atom_frac 0.2501012000000001 0.2508906299999999 0.0162481470000000 S
atom_frac 0.7501012000000000 0.2491093700000000 0.9837518530000000 S
atom_frac 0.2498987999999999 0.7508906300000000 0.9837518530000000 S
atom_frac 0.7538171100000000 0.5095191999999999 0.4692588200000000 S
atom_frac 0.2461828900000000 0.4904808000000001 0.4692588200000000 S
atom_frac 0.7461828900000000 0.0095191999999999 0.5307411799999999 S
atom_frac 0.2538171100000000 0.9904808000000001 0.5307411799999999 S
atom_frac 0.8113488200000001 0.7086434700000003 0.4063376100000000 S
atom_frac 0.1886511799999999 0.2913565299999997 0.4063376100000000 S
atom_frac 0.6886511799999999 0.2086434700000002 0.5936623900000000 S
atom_frac 0.3113488200000001 0.7913565299999999 0.5936623900000000 S
symmetry_n_params 14 3 11
symmetry_params a b c z1 z2 x3 y3 z3 x4 y4 z4 x5 y5 z5
symmetry_lv a, 0, 0
symmetry_lv 0, b, 0
symmetry_lv 0, 0, c
symmetry_frac 0, 0, z1
symmetry_frac 0.5, 0.5, 1 - z1
symmetry_frac 0, 0.5, z2
symmetry_frac 0.5, 0, 1 - z2
symmetry_frac x3, y3, z3
symmetry_frac 1 - x3, 1 - y3, z3
symmetry_frac 1.5 - x3, -0.5 + y3, 1 - z3
symmetry_frac -0.5 + x3, 1.5 - y3, 1 - z3
symmetry_frac x4, y4, z4
symmetry_frac 1 - x4, 1 - y4, z4
symmetry_frac 1.5 - x4, -0.5 + y4, 1 - z4
symmetry_frac -0.5 + x4, 1.5 - y4, 1 - z4
symmetry_frac x5, y5, z5
symmetry_frac 1 - x5, 1 - y5, z5
symmetry_frac 1.5 - x5, -0.5 + y5, 1 - z5
symmetry_frac -0.5 + x5, 1.5 - y5, 1 - z5
