lattice_vector   -2.50917007090886   2.50917007090886   2.50917007090886
lattice_vector    2.50917007090886  -2.50917007090886   2.50917007090886
lattice_vector    2.50917007090886   2.50917007090886  -2.50917007090886
atom_frac    0.00000000000000    0.00000000000000    0.00000000000000  Ba 
symmetry_n_params 1 1 0 
symmetry_params a
symmetry_lv -0.5*a , 0.5*a , 0.5*a
symmetry_lv 0.5*a , -0.5*a , 0.5*a
symmetry_lv 0.5*a , 0.5*a , -0.5*a
symmetry_frac 0, 0, 0
