lattice_vector    3.61935367140513   0.00000000000000   0.00000000000000
lattice_vector    0.00000000000000   3.61935367140513   0.00000000000000
lattice_vector    0.00000000000000   0.00000000000000   5.54734656660634
atom_frac    0.00000000000000    0.50000000000000    0.70211554299195  S 
atom_frac    0.50000000000000    0.00000000000000    0.29788445700805  S 
atom_frac    0.00000000000000    0.50000000000000    0.18708712205250  Zr 
atom_frac    0.50000000000000    0.00000000000000    0.81291287794750  Zr 
symmetry_n_params 4 2 2
symmetry_params a c z1 z2
symmetry_lv a, 0.0 ,0.0 
symmetry_lv 0.0, a ,0.0 
symmetry_lv 0.0, 0.0 ,c 
symmetry_frac    0.00000000000000 ,   0.50000000000000 ,   z1   
symmetry_frac    0.50000000000000 ,   0.00000000000000 ,   -z1  
symmetry_frac    0.00000000000000 ,   0.50000000000000 ,   z2   
symmetry_frac    0.50000000000000 ,   0.00000000000000 ,   -z2  
