lattice_vector 7.1694000000000004 0.0000000000000000 0.0000000000000000
lattice_vector 0.0000000000000000 7.1694000000000004 0.0000000000000000
lattice_vector 0.0000000000000000 0.0000000000000000 25.5525001225200015
atom_frac 0.2444699200000000 0.2444699200000000 0.0000000000000000 Ba
atom_frac 0.7555300800000000 0.7555300800000000 0.0000000000000000 Ba
atom_frac 0.2555300800000000 0.7444699200000002 0.5000000000000000 Ba
atom_frac 0.7444699200000002 0.2555300800000000 0.5000000000000000 Ba
atom_frac 0.2651749800000001 0.2651749800000001 0.8189424100000001 Ba
atom_frac 0.7348250199999999 0.7348250199999999 0.8189424100000001 Ba
atom_frac 0.2348250200000000 0.7651749800000002 0.3189424100000000 Ba
atom_frac 0.7651749800000002 0.2348250200000000 0.3189424100000000 Ba
atom_frac 0.2348250200000000 0.7651749800000002 0.6810575900000000 Ba
atom_frac 0.7651749800000002 0.2348250200000000 0.6810575900000000 Ba
atom_frac 0.2651749800000001 0.2651749800000001 0.1810575899999999 Ba
atom_frac 0.7348250199999999 0.7348250199999999 0.1810575899999999 Ba
atom_frac 0.0000000000000000 0.0000000000000000 0.4178906800000001 S
atom_frac 0.5000000000000000 0.5000000000000000 0.9178906800000002 S
atom_frac 0.5000000000000000 0.5000000000000000 0.0821093200000000 S
atom_frac 0.0000000000000000 0.0000000000000000 0.5821093199999999 S
atom_frac 0.0000000000000000 0.0000000000000000 0.8877833000000003 S
atom_frac 0.5000000000000000 0.5000000000000000 0.3877833000000002 S
atom_frac 0.5000000000000000 0.5000000000000000 0.6122166999999999 S
atom_frac 0.0000000000000000 0.0000000000000000 0.1122166999999997 S
atom_frac 0.2075548900000000 0.7924451100000000 0.0000000000000000 S
atom_frac 0.7924451100000000 0.2075548900000000 0.0000000000000000 S
atom_frac 0.7075548899999999 0.7075548899999999 0.5000000000000000 S
atom_frac 0.2924451100000000 0.2924451100000000 0.5000000000000000 S
atom_frac 0.0000000000000000 0.5000000000000000 0.5958083700000000 S
atom_frac 0.0000000000000000 0.5000000000000000 0.0958083699999999 S
atom_frac 0.5000000000000000 0.0000000000000000 0.9041916300000000 S
atom_frac 0.5000000000000000 0.0000000000000000 0.4041916300000001 S
atom_frac 0.0000000000000000 0.5000000000000000 0.4041916300000001 S
atom_frac 0.0000000000000000 0.5000000000000000 0.9041916300000000 S
atom_frac 0.5000000000000000 0.0000000000000000 0.0958083699999999 S
atom_frac 0.5000000000000000 0.0000000000000000 0.5958083700000000 S
atom_frac 0.2147728100000000 0.2147728100000000 0.3020581600000001 S
atom_frac 0.7852271900000000 0.7852271900000000 0.3020581600000001 S
atom_frac 0.2852271900000000 0.7147728100000000 0.8020581600000001 S
atom_frac 0.7147728100000000 0.2852271900000000 0.8020581600000001 S
atom_frac 0.2852271900000000 0.7147728100000000 0.1979418399999999 S
atom_frac 0.7147728100000000 0.2852271900000000 0.1979418399999999 S
atom_frac 0.2147728100000000 0.2147728100000000 0.6979418400000000 S
atom_frac 0.7852271900000000 0.7852271900000000 0.6979418400000000 S
atom_frac 0.2508672800000000 0.2508672800000000 0.4000028900000000 Zr
atom_frac 0.7491327200000000 0.7491327200000000 0.4000028900000000 Zr
atom_frac 0.2491327200000000 0.7508672800000002 0.9000028900000000 Zr
atom_frac 0.7508672800000002 0.2491327200000000 0.9000028900000000 Zr
atom_frac 0.2491327200000000 0.7508672800000002 0.0999971100000000 Zr
atom_frac 0.7508672800000002 0.2491327200000000 0.0999971100000000 Zr
atom_frac 0.2508672800000000 0.2508672800000000 0.5999971100000000 Zr
atom_frac 0.7491327200000000 0.7491327200000000 0.5999971100000000 Zr
symmetry_n_params 13 2 11
symmetry_params a c z1 z2 x3 x4 z5 x6 z6 x7 z7 x8 z8
symmetry_lv a, 0, 0
symmetry_lv 0, a, 0
symmetry_lv 0, 0, c
symmetry_frac x3, x3, 0
symmetry_frac 1 - x3, 1 - x3, 0
symmetry_frac 0.5 - x3, 0.5 + x3, 0.5
symmetry_frac 0.5 + x3, 0.5 - x3, 0.5
symmetry_frac x6, x6, z6
symmetry_frac 1 - x6, 1 - x6, z6
symmetry_frac 0.5 - x6, 0.5 + x6, -0.5 + z6
symmetry_frac 0.5 + x6, 0.5 - x6, -0.5 + z6
symmetry_frac 0.5 - x6, 0.5 + x6, 1.5 - z6
symmetry_frac 0.5 + x6, 0.5 - x6, 1.5 - z6
symmetry_frac x6, x6, 1 - z6
symmetry_frac 1 - x6, 1 - x6, 1 - z6
symmetry_frac 0, 0, z1
symmetry_frac 0.5, 0.5, 0.5 + z1
symmetry_frac 0.5, 0.5, 0.5 - z1
symmetry_frac 0, 0, 1 - z1
symmetry_frac 0, 0, z2
symmetry_frac 0.5, 0.5, -0.5 + z2
symmetry_frac 0.5, 0.5, 1.5 - z2
symmetry_frac 0, 0, 1 - z2
symmetry_frac x4, 1 - x4, 0
symmetry_frac 1 - x4, x4, 0
symmetry_frac 0.5 + x4, 0.5 + x4, 0.5
symmetry_frac 0.5 - x4, 0.5 - x4, 0.5
symmetry_frac 0, 0.5, z5
symmetry_frac 0, 0.5, -0.5 + z5
symmetry_frac 0.5, 0, 1.5 - z5
symmetry_frac 0.5, 0, 1 - z5
symmetry_frac 0, 0.5, 1 - z5
symmetry_frac 0, 0.5, 1.5 - z5
symmetry_frac 0.5, 0, -0.5 + z5
symmetry_frac 0.5, 0, z5
symmetry_frac x7, x7, z7
symmetry_frac 1 - x7, 1 - x7, z7
symmetry_frac 0.5 - x7, 0.5 + x7, 0.5 + z7
symmetry_frac 0.5 + x7, 0.5 - x7, 0.5 + z7
symmetry_frac 0.5 - x7, 0.5 + x7, 0.5 - z7
symmetry_frac 0.5 + x7, 0.5 - x7, 0.5 - z7
symmetry_frac x7, x7, 1 - z7
symmetry_frac 1 - x7, 1 - x7, 1 - z7
symmetry_frac x8, x8, z8
symmetry_frac 1 - x8, 1 - x8, z8
symmetry_frac 0.5 - x8, 0.5 + x8, 0.5 + z8
symmetry_frac 0.5 + x8, 0.5 - x8, 0.5 + z8
symmetry_frac 0.5 - x8, 0.5 + x8, 0.5 - z8
symmetry_frac 0.5 + x8, 0.5 - x8, 0.5 - z8
symmetry_frac x8, x8, 1 - z8
symmetry_frac 1 - x8, 1 - x8, 1 - z8
