# 
# This is the geometry file that corresponds to the current relaxation step.
# If you do not want this file to be written, set the "write_restart_geometry" flag to .false.
#  aims_uuid : D54821C9-246B-451F-A4A6-E715E7253CDE                                
# 
lattice_vector      8.30450333      0.00000000      0.00000000
lattice_vector      0.00000000     13.18354764      0.00000000
lattice_vector     -5.03257845      0.00000000      7.93851459
atom_frac       0.35316317      0.65362438      0.67707638 S
atom_frac       0.64683683      0.65362438      0.82292362 S
atom_frac       0.64683683      0.34637562      0.32292362 S
atom_frac       0.35316317      0.34637562      0.17707638 S
atom_frac       0.18900165      0.41966897      0.65555447 S
atom_frac       0.81099835      0.41966897      0.84444553 S
atom_frac       0.81099835      0.58033103      0.34444553 S
atom_frac       0.18900165      0.58033103      0.15555447 S
atom_frac       0.25156864      0.55562452      0.78176432 S
atom_frac       0.74843136      0.55562452      0.71823568 S
atom_frac       0.74843136      0.44437548      0.21823568 S
atom_frac       0.25156864      0.44437548      0.28176432 S
atom_frac       0.41099691      0.32004696      0.79491294 S
atom_frac       0.58900309      0.32004696      0.70508706 S
atom_frac       0.58900309      0.67995304      0.20508706 S
atom_frac       0.41099691      0.67995304      0.29491294 S
atom_frac       0.90622988      0.21793498      0.12127027 S
atom_frac       0.09377012      0.21793498      0.37872973 S
atom_frac       0.09377012      0.78206502      0.87872973 S
atom_frac       0.90622988      0.78206502      0.62127027 S
atom_frac       0.73411866      0.98374985      0.99242385 S
atom_frac       0.26588134      0.98374985      0.50757615 S
atom_frac       0.26588134      0.01625015      0.00757615 S
atom_frac       0.73411866      0.01625015      0.49242385 S
atom_frac       0.68529461      0.12127348      0.06683797 S
atom_frac       0.31470539      0.12127348      0.43316203 S
atom_frac       0.31470539      0.87872652      0.93316203 S
atom_frac       0.68529461      0.87872652      0.56683797 S
atom_frac       0.85429836      0.88578653      0.19445667 S
atom_frac       0.14570164      0.88578653      0.30554333 S
atom_frac       0.14570164      0.11421347      0.80554333 S
atom_frac       0.85429836      0.11421347      0.69445667 S
# 
# What follows is the current estimated Hessian matrix constructed by the BFGS algorithm.
# This is NOT the true Hessian matrix of the system.
# If you do not want this information here, switch it off using the "hessian_to_restart_geometry" keyword.
# 
trust_radius             0.2000000030
hessian_block                1       1          92.633455          31.105682         -29.123861          31.105682          66.439774         -38.006484         -29.123861         -38.006484          50.422830
hessian_block                1       2          -2.061657          -7.555638          -0.224538           1.838334          -7.004458          -0.706041           0.440409           4.722793           3.140977
hessian_block                1       3         -20.638266         -26.527837          25.811849         -31.625385         -54.307448          42.508591          25.263167          30.909517         -39.342360
hessian_block                1       4           3.580204           2.680238          -1.082277           1.038190           2.099462          -0.977628          -0.505805          -2.622969          -2.474345
hessian_block                1       5          -0.219141          -0.237634          -0.342674          -2.146645           0.890684          -0.616610          -1.757538          -2.337618          -0.823206
hessian_block                1       6          -1.132859          -1.476809           0.658815          -0.581676           1.621433          -0.667628           1.236654          -0.545227           0.138780
hessian_block                1       7           0.649309           2.026150          -0.150815          -0.371081          -3.759556           1.969563          -0.604010          -1.133192           0.311787
hessian_block                1       8           2.633701           2.664134          -1.665336           0.160094           0.470551          -0.047786           0.343393           1.990216          -0.426656
hessian_block                2       2          28.370929         -23.554849          -2.209326         -23.554849         170.973110          24.942804          -2.209326          24.942804          26.305928
hessian_block                2       3          -4.747006          -1.190453           2.011303           9.391717         -99.482480         -35.910337           5.886769         -32.120698         -20.380108
hessian_block                2       4         -13.107477          28.674796          -6.028980          25.080916         -52.067114           8.161432          -4.107710           6.521007          -8.241539
hessian_block                2       5          -1.851089          -2.400880           0.211223          -4.687669          -3.785010           0.244674          -0.642530           1.660275          -1.079737
hessian_block                2       6           0.012673           0.890141           0.393617          -3.925090           1.452460           1.719254           2.790911           1.199938          -0.309390
hessian_block                2       7           0.821691           2.524722          -0.573990           5.354670           2.883428           0.011378          -0.531848          -1.688160           0.178587
hessian_block                2       8           0.731919          -0.503810          -1.331936           1.598999           1.167609          -0.895829          -2.537045          -2.508495           0.549328
hessian_block                3       3          33.648743          26.136006         -34.368967          26.136006         165.583303          -1.305419         -34.368967          -1.305419          57.635325
hessian_block                3       4          -2.653718          -2.175366           4.217126           5.052189          -3.420081          -2.085976           2.213377          -1.010233           0.458408
hessian_block                3       5           0.295685          -1.221525          -0.422113           0.156962          -1.160581           0.306112          -1.209906           5.191607           2.734621
hessian_block                3       6           0.542051          -0.901359          -0.836599          -0.377771           0.824547          -2.202211          -0.167319           1.106629           0.936611
hessian_block                3       7          -0.740051           1.554462           0.419906           0.586885          -2.403724          -0.959510           0.645602          -0.105355          -0.099422
hessian_block                3       8          -0.874536          -0.376803           0.773154          -0.494051           0.095800           2.248416           0.166453          -1.374720          -1.261139
hessian_block                4       4         109.608521         -28.847055         -89.375111         -28.847055          70.955951          -6.206708         -89.375111          -6.206708         107.869343
hessian_block                4       5           0.207496          -1.662245           0.630846           0.535397          -3.504169           2.782975           3.552301          -4.136434          -0.269118
hessian_block                4       6           0.720397          -0.284258          -0.846057          -0.589123           1.519525           4.232850           0.369585           0.743823          -2.241302
hessian_block                4       7          -0.833423           1.968398           0.552285           0.009850           1.393670          -4.454152           0.847951          -0.625975          -0.556786
hessian_block                4       8          -2.158775           1.407731           1.368354          -0.177904           0.215910          -0.766570          -1.751819           0.395932           2.573204
hessian_block                5       5          37.836239          33.357096         -21.818611          33.357096          65.752109         -16.893613         -21.818611         -16.893613         101.697515
hessian_block                5       6           3.878776          -2.149961           1.310082         -14.097201         -24.562314         -17.487986          -2.729091          -3.052930           4.855671
hessian_block                5       7         -31.732004         -33.528173          13.683159         -23.460521         -41.835932          28.909516          18.191145          13.250620          -8.195021
hessian_block                5       8          -6.963709          -8.591864          -1.859589           5.650545           3.966983           5.323183          -1.050453          -3.511496         -11.348494
hessian_block                6       6          18.652545         -17.100740         -19.325556         -17.100740         129.237282          -1.798970         -19.325556          -1.798970          60.466599
hessian_block                6       7         -15.592646          34.320366          14.113937          24.523922         -57.811934         -30.502071          16.495439         -30.481205         -23.283050
hessian_block                6       8          -3.491199         -20.518662          12.340138          -5.588000         -43.680131          36.540196          13.420175          34.334107         -43.941226
hessian_block                7       7          48.740882          -0.860179         -26.172546          -0.860179         120.741669          16.541914         -26.172546          16.541914          28.068598
hessian_block                7       8           6.883282          17.071734          -2.607040           0.399945         -20.857566          -1.159527          -1.781330           7.867940           6.700088
hessian_block                8       8          84.016432          10.339624         -26.845415          10.339624          65.028151         -39.413893         -26.845415         -39.413893          54.045211
hessian_block_lv             1       1          17.890322          -0.694710           3.121877          -0.694710           8.092226           1.036853           3.121877           1.036853          13.163752
hessian_block_lv             1       2           3.515850           0.639963          -0.056069           0.000000           0.000000           0.000000           0.000000           0.000000           0.000000
hessian_block_lv             2       2           7.949347           0.000000           0.000000           0.000000           0.000000           0.000000           0.000000           0.000000           0.000000
hessian_block_lv_atom        1       1          -0.699529          -0.695053          -1.119538           8.998582           5.588572          -1.254108          -3.019085          -1.756940           0.225672
hessian_block_lv_atom        1       2          -3.436309          -2.704469          -1.149020          -0.550618          -0.784391          -2.103901          -1.815592          -0.808952          -0.581403
hessian_block_lv_atom        1       3          -3.257748          -2.134356           0.951116           2.528141           2.207464          -0.539219           4.461597           3.562679           0.146061
hessian_block_lv_atom        1       4          -2.896467          -1.244492           1.667632          -2.374171          -2.339829          -2.620912           4.402677           2.925870          -0.694638
hessian_block_lv_atom        1       5           4.620734           2.978590          -1.673601           6.071795           5.719533          -0.119722          -3.888277          -3.855660          -3.150348
hessian_block_lv_atom        1       6           1.693335           0.786213          -1.524994          -2.997169          -1.114586           3.494842          -5.578660          -4.798378          -1.085414
hessian_block_lv_atom        1       7          -6.921760          -3.757588           0.453361          -0.941808           0.629273          -0.375666           3.996926           1.936897          -0.608378
hessian_block_lv_atom        1       8          -5.926326          -2.916232          -0.089407          -5.730286          -3.699362          -3.309495           5.116598           2.986846           1.931373
hessian_block_lv_atom        2       1          -2.784289           0.000000           0.000000           1.701576           0.000000           0.000000          -3.948242           0.000000           0.000000
hessian_block_lv_atom        2       2          -3.253719           0.000000           0.000000          -2.939036           0.000000           0.000000          -5.147637           0.000000           0.000000
hessian_block_lv_atom        2       3          -0.987057           0.000000           0.000000           2.809695           0.000000           0.000000           5.328025           0.000000           0.000000
hessian_block_lv_atom        2       4           2.291268           0.000000           0.000000          -6.078109           0.000000           0.000000           3.536260           0.000000           0.000000
hessian_block_lv_atom        2       5           1.841672           0.000000           0.000000           5.285895           0.000000           0.000000         -12.274839           0.000000           0.000000
hessian_block_lv_atom        2       6           0.072266           0.000000           0.000000           5.980353           0.000000           0.000000         -10.438366           0.000000           0.000000
hessian_block_lv_atom        2       7          -3.097291           0.000000           0.000000          -2.463983           0.000000           0.000000           1.814626           0.000000           0.000000
hessian_block_lv_atom        2       8          -4.346074           0.000000           0.000000          -9.578018           0.000000           0.000000           8.886235           0.000000           0.000000
