# 
# This is the geometry file that corresponds to the current relaxation step.
# If you do not want this file to be written, set the "write_restart_geometry" flag to .false.
#  aims_uuid : ACE8B168-8317-444B-A9A8-D49F08D76588                                
# 
lattice_vector      6.78600746      0.00000000      0.00000000
lattice_vector      0.00000000      6.78600746      0.00000000
lattice_vector      0.00000000      0.00000000      4.09428577
atom_frac       0.00000000      0.00000000      0.00000000 Ba
atom_frac       0.50000000      0.50000000      0.00000000 Ba
atom_frac       0.00000000      0.50000000      0.20708420 S
atom_frac       0.50000000      0.00000000      0.79291580 S
atom_frac       0.18223986      0.68223986      0.48340847 S
atom_frac       0.81776014      0.31776014      0.48340847 S
atom_frac       0.68223986      0.81776014      0.51659153 S
atom_frac       0.31776014      0.18223986      0.51659153 S
# 
# What follows is the current estimated Hessian matrix constructed by the BFGS algorithm.
# This is NOT the true Hessian matrix of the system.
# If you do not want this information here, switch it off using the "hessian_to_restart_geometry" keyword.
# 
trust_radius             0.4000000060
hessian_block                1       1          13.773149         -26.433351         -11.844809         -26.433351         136.095394          23.977306         -11.844809          23.977306          15.782749
hessian_block_lv             1       1           7.059704           3.427450           0.000000           3.427450           7.599672           0.000000           0.000000           0.000000           0.000000
hessian_block_lv_atom        1       1          -3.458492          -5.527926           0.000000          13.795950           6.298148           0.000000           3.147120           5.725687           0.000000
