# 
# This is the geometry file that corresponds to the current relaxation step.
# If you do not want this file to be written, set the "write_restart_geometry" flag to .false.
#  aims_uuid : 8CF8A5B1-C020-40BE-ABC0-5F94DF9BA442                                
# 
lattice_vector      9.06526192      0.00000000      0.00000000
lattice_vector      0.00000000      3.59994162      0.00000000
lattice_vector      0.60810303      0.00000000      5.04327126
atom_frac      -0.44526548      0.25000000      0.23817923 S
atom_frac       0.44526548      0.75000000     -0.23817923 S
atom_frac       0.17491239      0.25000000     -0.47474930 S
atom_frac      -0.17491239      0.75000000      0.47474930 S
atom_frac       0.17396317      0.25000000      0.11590425 S
atom_frac      -0.17396317      0.75000000     -0.11590425 S
atom_frac      -0.34720234      0.25000000     -0.28271910 Zr
atom_frac       0.34720234      0.75000000      0.28271910 Zr
# 
# What follows is the current estimated Hessian matrix constructed by the BFGS algorithm.
# This is NOT the true Hessian matrix of the system.
# If you do not want this information here, switch it off using the "hessian_to_restart_geometry" keyword.
# 
trust_radius             0.1219360625
hessian_block                1       1          59.398678           4.516385          -1.751728           4.516385          20.575936           0.407249          -1.751728           0.407249          28.550161
hessian_block                1       2           1.428404           0.473670          -3.576244          -1.282550           0.826059           3.392663          -1.166474           0.967417          -2.351696
hessian_block                1       3          20.298752          -1.061352          19.797922          -0.896988          -6.966867          -9.136584           0.000000           0.000000           0.000000
hessian_block                2       2          27.314402          -4.045947         -19.144169          -4.045947          33.174846          13.418941         -19.144169          13.418941          25.824785
hessian_block                2       3          -7.601068          26.579269           9.909836           4.864262           9.952225           5.199082           0.000000           0.000000           0.000000
hessian_block                3       3          98.710916           3.569268           0.000000           3.569268          20.322815           0.000000           0.000000           0.000000           0.000000
hessian_block_lv             1       1           2.452936           2.794380           1.251369           2.794380          16.455346          -0.356178           1.251369          -0.356178           5.315898
hessian_block_lv             1       2           0.240424           2.309840          -1.394659           0.000000           0.000000           0.000000           0.000000           0.000000           0.000000
hessian_block_lv             2       2          11.022673           0.000000           0.000000           0.000000           0.000000           0.000000           0.000000           0.000000           0.000000
hessian_block_lv_atom        1       1           4.330084           9.033583          -1.115236           0.116671          -0.711046           0.234466          -3.689004          -4.581594           1.390790
hessian_block_lv_atom        1       2           1.689927           3.055910           0.360710          -4.035893          -7.912719          -1.335967          -0.732017          -2.196728          -2.068266
hessian_block_lv_atom        1       3           0.693222          -3.534285          -0.239840          -0.124617           0.074194          -1.713120           0.000000           0.000000           0.000000
hessian_block_lv_atom        2       1          -1.036733           0.000000           0.000000          -0.097423           0.000000           0.000000          -2.046335           0.000000           0.000000
hessian_block_lv_atom        2       2           9.550561           0.000000           0.000000          -4.160777           0.000000           0.000000         -10.077567           0.000000           0.000000
hessian_block_lv_atom        2       3           1.055226           0.000000           0.000000           0.632835           0.000000           0.000000           0.000000           0.000000           0.000000
