# 
# This is the geometry file that corresponds to the current relaxation step.
# If you do not want this file to be written, set the "write_restart_geometry" flag to .false.
#  aims_uuid : 55B7E03D-7C0E-4182-A525-F25E2245AFA3                                
# 
lattice_vector      0.00000000      3.16243879      3.16243879
lattice_vector      3.16243879      0.00000000      3.16243879
lattice_vector      3.16243879      3.16243879      0.00000000
atom_frac       0.00000000      0.00000000      0.00000000 Ba
atom_frac       0.50000000      0.50000000      0.50000000 S
# 
# What follows is the current estimated Hessian matrix constructed by the BFGS algorithm.
# This is NOT the true Hessian matrix of the system.
# If you do not want this information here, switch it off using the "hessian_to_restart_geometry" keyword.
# 
trust_radius             0.2000000030
hessian_block_lv             1       1           4.224882           0.000000           0.000000           0.000000           0.000000           0.000000           0.000000           0.000000           0.000000
