lattice_vector -3.0485500000000001 3.0485500000000001 8.0791501456799999
lattice_vector 3.0485500000000001 -3.0485500000000001 8.0791501456799999
lattice_vector 3.0485500000000001 3.0485500000000001 -8.0791501456799999
atom_frac 0.7995887300000001 0.7995887300000001 -0.0000000000000000 Ba
atom_frac 0.5495887300000004 0.0495887300000000 0.5000000000000001 Ba
atom_frac 0.2044708299999999 0.2044708300000000 0.0000000000000000 Ba
atom_frac 0.9544708299999999 0.4544708299999999 0.4999999999999999 Ba
atom_frac 0.9991779000000004 0.9991779000000000 0.0000000000000001 S
atom_frac 0.7491779000000004 0.2491778999999999 0.5000000000000001 S
atom_frac 0.9688955600000002 0.6419812699999999 0.3269142900000000 S
atom_frac 0.3150669800000002 0.6419812700000000 0.6730857100000001 S
atom_frac 0.3919812700000000 0.5650669800000001 0.1730857100000000 S
atom_frac 0.3919812700000003 0.2188955600000000 0.8269142899999999 S
symmetry_n_params 7 2 5
symmetry_params a c z1 z2 z3 y4 z4
symmetry_lv -0.5*a, 0.5*a, 0.5*c
symmetry_lv 0.5*a, -0.5*a, 0.5*c
symmetry_lv 0.5*a, 0.5*a, -0.5*c
symmetry_frac z1, z1, 0
symmetry_frac -0.25 + z1, -0.75 + z1, 0.5
symmetry_frac z2, z2, 0
symmetry_frac 0.75 + z2, 0.25 + z2, 0.5
symmetry_frac z3, z3, 0
symmetry_frac -0.25 + z3, -0.75 + z3, 0.5
symmetry_frac y4 + z4, z4, y4
symmetry_frac -y4 + z4, z4, 1 - y4
symmetry_frac -0.25 + z4, 0.25 - y4 + z4, 0.5 - y4
symmetry_frac -0.25 + z4, -0.75 + y4 + z4, 0.5 + y4
