lattice_vector  1.75000000000000 -3.03108891324554  0.00000000000000
lattice_vector  1.75000000000000  3.03108891324554  0.00000000000000
lattice_vector  0.00000000000000  0.00000000000000  6.30000000000000
atom_frac  0.33333300000000  0.66666700000000  0.25000000000000 Zr
atom_frac  0.66666700000000  0.33333300000000  0.75000000000000 Zr
# format: symmetry_n_params [n n_lv n_fracpos]
symmetry_n_params 2 2 0
symmetry_params a c
symmetry_lv 0.5*a , -0.866025*a , 0
symmetry_lv 0.5*a , 0.866025*a , 0
symmetry_lv 0 , 0 , c
symmetry_frac 0.333333 , 0.666667 , 0.25
symmetry_frac 0.666667 , 0.333333 , 0.75
