# 
# This is the geometry file that corresponds to the current relaxation step.
# If you do not want this file to be written, set the "write_restart_geometry" flag to .false.
#  aims_uuid : 77AFCF3A-84F9-446C-A945-CB0445D25DB1                                
# 
lattice_vector     -2.47720843      2.47720843     12.66649112
lattice_vector      2.47720843     -2.47720843     12.66649112
lattice_vector      2.47720843      2.47720843    -12.66649112
atom_frac       0.00000000      0.00000000      0.00000000 Ba
atom_frac       0.18053158      0.18053158      0.00000000 Ba
atom_frac       0.81946842      0.81946842      0.00000000 Ba
atom_frac       0.50000000      0.50000000      0.00000000 S
atom_frac       0.30091420      0.30091420      0.00000000 S
atom_frac       0.69908580      0.69908580      0.00000000 S
atom_frac       0.90402360      0.40402360      0.50000000 S
atom_frac       0.40402360      0.90402360      0.50000000 S
atom_frac       0.09597640      0.59597640      0.50000000 S
atom_frac       0.59597640      0.09597640      0.50000000 S
atom_frac       0.39947181      0.39947181      0.00000000 Zr
atom_frac       0.60052819      0.60052819      1.00000000 Zr
# 
# What follows is the current estimated Hessian matrix constructed by the BFGS algorithm.
# This is NOT the true Hessian matrix of the system.
# If you do not want this information here, switch it off using the "hessian_to_restart_geometry" keyword.
# 
trust_radius             0.2000000030
hessian_block                1       1         134.612239          20.963779         -48.757740          20.963779         316.211852        -177.224150         -48.757740        -177.224150         383.426043
hessian_block                1       2          77.816389         -20.115795         -93.026553           0.000000           0.000000           0.000000           0.000000           0.000000           0.000000
hessian_block                2       2         219.825179           0.000000           0.000000           0.000000           0.000000           0.000000           0.000000           0.000000           0.000000
hessian_block_lv             1       1          37.528178           1.557112           0.000000           1.557112           0.511510           0.000000           0.000000           0.000000           0.000000
hessian_block_lv_atom        1       1           9.098074          -1.278484           0.000000         -16.881457          -5.125108           0.000000          -5.504996           1.828977           0.000000
hessian_block_lv_atom        1       2          24.177595           1.919954           0.000000           0.000000           0.000000           0.000000           0.000000           0.000000           0.000000
