# 
# This is the geometry file that corresponds to the current relaxation step.
# If you do not want this file to be written, set the "write_restart_geometry" flag to .false.
#  aims_uuid : FDD830CE-B0C9-4B10-ADA9-397C5124D3D7                                
# 
lattice_vector      9.06573949      0.00000000      0.00000000
lattice_vector      0.00000000      3.59938361      0.00000000
lattice_vector      0.60814164      0.00000000      5.04345011
atom_frac      -0.44524431      0.25000000      0.23817334 S
atom_frac       0.44524431      0.75000000     -0.23817334 S
atom_frac       0.17489683      0.25000000     -0.47475506 S
atom_frac      -0.17489683      0.75000000      0.47475506 S
atom_frac       0.17395300      0.25000000      0.11591820 S
atom_frac      -0.17395300      0.75000000     -0.11591820 S
atom_frac      -0.34720328      0.25000000     -0.28272094 Zr
atom_frac       0.34720328      0.75000000      0.28272094 Zr
# 
# What follows is the current estimated Hessian matrix constructed by the BFGS algorithm.
# This is NOT the true Hessian matrix of the system.
# If you do not want this information here, switch it off using the "hessian_to_restart_geometry" keyword.
# 
trust_radius             0.1218153456
hessian_block                1       1          59.477055           4.479712          -1.777443           4.479712          20.510268           0.340584          -1.777443           0.340584          28.549686
hessian_block                1       2           1.483495           0.500755          -3.583553          -1.286074           0.818882           3.379013          -1.213459           0.932409          -2.345767
hessian_block                1       3          20.344858          -1.077559          19.830438          -0.862191          -6.934318          -9.118547           0.000000           0.000000           0.000000
hessian_block                2       2          27.334549          -4.029017         -19.156328          -4.029017          33.232704          13.452408         -19.156328          13.452408          25.846485
hessian_block                2       3          -7.598544          26.621780           9.906658           4.864131          10.020968           5.230819           0.000000           0.000000           0.000000
hessian_block                3       3          98.753410           3.574303           0.000000           3.574303          20.352126           0.000000           0.000000           0.000000           0.000000
hessian_block_lv             1       1           2.455208           2.787616           1.255397           2.787616          16.406208          -0.368268           1.255397          -0.368268           5.315999
hessian_block_lv             1       2           0.234791           2.296520          -1.395683           0.000000           0.000000           0.000000           0.000000           0.000000           0.000000
hessian_block_lv             2       2          11.008995           0.000000           0.000000           0.000000           0.000000           0.000000           0.000000           0.000000           0.000000
hessian_block_lv_atom        1       1           4.341390           9.059593          -1.109522           0.125373          -0.713227           0.255834          -3.687202          -4.564565           1.404213
hessian_block_lv_atom        1       2           1.698537           3.039262           0.365026          -4.040829          -7.921528          -1.368527          -0.745492          -2.198167          -2.086642
hessian_block_lv_atom        1       3           0.685949          -3.533664          -0.234451          -0.134032           0.062377          -1.742776           0.000000           0.000000           0.000000
hessian_block_lv_atom        2       1          -1.035307           0.000000           0.000000          -0.104798           0.000000           0.000000          -2.059682           0.000000           0.000000
hessian_block_lv_atom        2       2           9.557301           0.000000           0.000000          -4.139416           0.000000           0.000000         -10.075403           0.000000           0.000000
hessian_block_lv_atom        2       3           1.036612           0.000000           0.000000           0.654673           0.000000           0.000000           0.000000           0.000000           0.000000
