lattice_vector  9.50400000000000  0.00000000000000  0.00000000000000
lattice_vector  0.00000000000000  3.65720002560000  0.00000000000000
lattice_vector  0.54015823576634  0.00000000000000  5.17418151212264
atom_frac  0.55224800000000  0.25000000000000  0.23976100000000 S
atom_frac  0.44775200000000  0.75000000000000  0.76023900000000 S
atom_frac  0.18474400000000  0.25000000000000  0.50754000000000 S
atom_frac  0.81525600000000  0.75000000000000  0.49246000000000 S
atom_frac  0.18727500000000  0.25000000000000  0.10877900000000 S
atom_frac  0.81272500000000  0.75000000000000  0.89122100000000 S
atom_frac  0.64662000000000  0.25000000000000  0.72137000000000 Zr
atom_frac  0.35338000000000  0.75000000000000  0.27863000000000 Zr
# format: symmetry_n_params [n n_lv n_fracpos]
symmetry_n_params 12 4 8
symmetry_params a b d e x1 z1 x2 z2 x3 z3 x4 z4
symmetry_lv a , 0 , 0
symmetry_lv 0 , b , 0
symmetry_lv d , 0 , e
symmetry_frac x1 , 0.25 , z1
symmetry_frac -x1 , 0.75 , -z1
symmetry_frac x2 , 0.25 , z2
symmetry_frac -x2 , 0.75 , -z2
symmetry_frac x3 , 0.25 , z3
symmetry_frac -x3 , 0.75 , -z3
symmetry_frac x4 , 0.25 , z4
symmetry_frac -x4 , 0.75 , -z4
