# 
# This is the geometry file that corresponds to the current relaxation step.
# If you do not want this file to be written, set the "write_restart_geometry" flag to .false.
#  aims_uuid : 6AD9A571-DB99-4068-A50E-15D127AD396F                                
# 
lattice_vector     -2.42147787      2.42147787      2.42147787
lattice_vector      2.42147787     -2.42147787      2.42147787
lattice_vector      2.42147787      2.42147787     -2.42147787
atom_frac       0.00000000      0.00000000      0.00000000 Ba
# 
# What follows is the current estimated Hessian matrix constructed by the BFGS algorithm.
# This is NOT the true Hessian matrix of the system.
# If you do not want this information here, switch it off using the "hessian_to_restart_geometry" keyword.
# 
trust_radius             0.2000000030
hessian_block_lv             1       1           1.118310           0.000000           0.000000           0.000000           0.000000           0.000000           0.000000           0.000000           0.000000
