lattice_vector    0.00000000000000   2.62407175345962   2.62407175345962
lattice_vector    2.62407175345962   0.00000000000000   2.62407175345962
lattice_vector    2.62407175345962   2.62407175345962   0.00000000000000
atom_frac    0.50000000000000    0.50000000000000    0.50000000000000  S 
atom_frac    0.00000000000000    0.00000000000000    0.00000000000000  Zr 
symmetry_n_params 1 1 0
symmetry_params a
symmetry_lv 0.0, a*0.5, a*0.5 
symmetry_lv a*0.5, 0.0, a*0.5 
symmetry_lv a*0.5, a*0.5, 0.0
symmetry_frac  0.0, 0.0, 0.0 
symmetry_frac  0.5, 0.5, 0.5 
