# 
# This is the geometry file that corresponds to the current relaxation step.
# If you do not want this file to be written, set the "write_restart_geometry" flag to .false.
#  aims_uuid : C193D424-3594-4364-A55B-8402BBA9A0C3                                
# 
lattice_vector     -2.46103989      2.46103989      7.78071337
lattice_vector      2.46103989     -2.46103989      7.78071337
lattice_vector      2.46103989      2.46103989     -7.78071337
atom_frac       0.64113557      0.64113557      0.00000000 Ba
atom_frac       0.35886443      0.35886443      0.00000000 Ba
atom_frac       0.50000000      0.00000000      0.50000000 S
atom_frac       0.00000000      0.50000000      0.50000000 S
atom_frac       0.83570215      0.83570215      0.00000000 S
atom_frac       0.16429785      0.16429785      0.00000000 S
atom_frac       0.00000000      0.00000000      0.00000000 Zr
# 
# What follows is the current estimated Hessian matrix constructed by the BFGS algorithm.
# This is NOT the true Hessian matrix of the system.
# If you do not want this information here, switch it off using the "hessian_to_restart_geometry" keyword.
# 
trust_radius             0.0203412998
hessian_block                1       1          89.097271          -1.963961           0.000000          -1.963961         155.694578           0.000000           0.000000           0.000000           0.000000
hessian_block_lv             1       1          18.444278           1.345707           0.000000           1.345707           0.749110           0.000000           0.000000           0.000000           0.000000
hessian_block_lv_atom        1       1           0.927767          -1.887759           0.000000          -6.784505          -4.345514           0.000000           0.000000           0.000000           0.000000
